K = 2;
capacity =
  [60, 40, 45, 34, 60, 33, 34, 60];
  
N = 12;
nStudents = [500, 500, 750, 1000, 400, 450, 600, 350, 390, 420, 450, 500];
year = [1,2,3,2,3,2,1,1,3,2,3,1];

D = 3;
department = [1,2,3,3,2,2,3,1,3,1,2,3];

requiredTime = [40, 55, 50, 45, 45, 55, 55, 40, 40, 50, 55, 45];